g3 0 1 0	# problem eigencco
 30 15 1 0 15	# vars, constraints, objectives, ranges, eqns
 15 1	# nonlinear constraints, objectives
 0 0	# network constraints: nonlinear, linear
 25 30 25	# nonlinear vars in constraints, objectives, both
 0 0 0 1	# linear network variables; functions; arith, flags
 0 0 0 0 0	# discrete variables: binary, integer, nonlinear (b,c,o)
 125 30	# nonzeros in Jacobian, gradients
 0 0	# max name lengths: constraints, variables
 0 0 0 0 0	# common exprs: b,c,o,c1,o1
C0	#cons[2,1]
o54	#sumlist
5
o2	#*
v0	#q[1,1]
v1	#q[1,2]
o2	#*
v5	#q[2,1]
v6	#q[2,2]
o2	#*
v10	#q[3,1]
v11	#q[3,2]
o2	#*
v15	#q[4,1]
v16	#q[4,2]
o2	#*
v20	#q[5,1]
v21	#q[5,2]
C1	#cons[3,1]
o54	#sumlist
5
o2	#*
v0	#q[1,1]
v2	#q[1,3]
o2	#*
v5	#q[2,1]
v7	#q[2,3]
o2	#*
v10	#q[3,1]
v12	#q[3,3]
o2	#*
v15	#q[4,1]
v17	#q[4,3]
o2	#*
v20	#q[5,1]
v22	#q[5,3]
C2	#cons[3,2]
o54	#sumlist
5
o2	#*
v1	#q[1,2]
v2	#q[1,3]
o2	#*
v6	#q[2,2]
v7	#q[2,3]
o2	#*
v11	#q[3,2]
v12	#q[3,3]
o2	#*
v16	#q[4,2]
v17	#q[4,3]
o2	#*
v21	#q[5,2]
v22	#q[5,3]
C3	#cons[4,1]
o54	#sumlist
5
o2	#*
v0	#q[1,1]
v3	#q[1,4]
o2	#*
v5	#q[2,1]
v8	#q[2,4]
o2	#*
v10	#q[3,1]
v13	#q[3,4]
o2	#*
v15	#q[4,1]
v18	#q[4,4]
o2	#*
v20	#q[5,1]
v23	#q[5,4]
C4	#cons[4,2]
o54	#sumlist
5
o2	#*
v1	#q[1,2]
v3	#q[1,4]
o2	#*
v6	#q[2,2]
v8	#q[2,4]
o2	#*
v11	#q[3,2]
v13	#q[3,4]
o2	#*
v16	#q[4,2]
v18	#q[4,4]
o2	#*
v21	#q[5,2]
v23	#q[5,4]
C5	#cons[4,3]
o54	#sumlist
5
o2	#*
v2	#q[1,3]
v3	#q[1,4]
o2	#*
v7	#q[2,3]
v8	#q[2,4]
o2	#*
v12	#q[3,3]
v13	#q[3,4]
o2	#*
v17	#q[4,3]
v18	#q[4,4]
o2	#*
v22	#q[5,3]
v23	#q[5,4]
C6	#cons[5,1]
o54	#sumlist
5
o2	#*
v0	#q[1,1]
v4	#q[1,5]
o2	#*
v5	#q[2,1]
v9	#q[2,5]
o2	#*
v10	#q[3,1]
v14	#q[3,5]
o2	#*
v15	#q[4,1]
v19	#q[4,5]
o2	#*
v20	#q[5,1]
v24	#q[5,5]
C7	#cons[5,2]
o54	#sumlist
5
o2	#*
v1	#q[1,2]
v4	#q[1,5]
o2	#*
v6	#q[2,2]
v9	#q[2,5]
o2	#*
v11	#q[3,2]
v14	#q[3,5]
o2	#*
v16	#q[4,2]
v19	#q[4,5]
o2	#*
v21	#q[5,2]
v24	#q[5,5]
C8	#cons[5,3]
o54	#sumlist
5
o2	#*
v2	#q[1,3]
v4	#q[1,5]
o2	#*
v7	#q[2,3]
v9	#q[2,5]
o2	#*
v12	#q[3,3]
v14	#q[3,5]
o2	#*
v17	#q[4,3]
v19	#q[4,5]
o2	#*
v22	#q[5,3]
v24	#q[5,5]
C9	#cons[5,4]
o54	#sumlist
5
o2	#*
v3	#q[1,4]
v4	#q[1,5]
o2	#*
v8	#q[2,4]
v9	#q[2,5]
o2	#*
v13	#q[3,4]
v14	#q[3,5]
o2	#*
v18	#q[4,4]
v19	#q[4,5]
o2	#*
v23	#q[5,4]
v24	#q[5,5]
C10	#cons1[1]
o54	#sumlist
5
o2	#*
v0	#q[1,1]
v0	#q[1,1]
o2	#*
v5	#q[2,1]
v5	#q[2,1]
o2	#*
v10	#q[3,1]
v10	#q[3,1]
o2	#*
v15	#q[4,1]
v15	#q[4,1]
o2	#*
v20	#q[5,1]
v20	#q[5,1]
C11	#cons1[2]
o54	#sumlist
5
o2	#*
v1	#q[1,2]
v1	#q[1,2]
o2	#*
v6	#q[2,2]
v6	#q[2,2]
o2	#*
v11	#q[3,2]
v11	#q[3,2]
o2	#*
v16	#q[4,2]
v16	#q[4,2]
o2	#*
v21	#q[5,2]
v21	#q[5,2]
C12	#cons1[3]
o54	#sumlist
5
o2	#*
v2	#q[1,3]
v2	#q[1,3]
o2	#*
v7	#q[2,3]
v7	#q[2,3]
o2	#*
v12	#q[3,3]
v12	#q[3,3]
o2	#*
v17	#q[4,3]
v17	#q[4,3]
o2	#*
v22	#q[5,3]
v22	#q[5,3]
C13	#cons1[4]
o54	#sumlist
5
o2	#*
v3	#q[1,4]
v3	#q[1,4]
o2	#*
v8	#q[2,4]
v8	#q[2,4]
o2	#*
v13	#q[3,4]
v13	#q[3,4]
o2	#*
v18	#q[4,4]
v18	#q[4,4]
o2	#*
v23	#q[5,4]
v23	#q[5,4]
C14	#cons1[5]
o54	#sumlist
5
o2	#*
v4	#q[1,5]
v4	#q[1,5]
o2	#*
v9	#q[2,5]
v9	#q[2,5]
o2	#*
v14	#q[3,5]
v14	#q[3,5]
o2	#*
v19	#q[4,5]
v19	#q[4,5]
o2	#*
v24	#q[5,5]
v24	#q[5,5]
O0 0	#f
o54	#sumlist
15
o5	#^
o0	# + 
n-2
o54	#sumlist
5
o2	#*
o2	#*
v0	#q[1,1]
v0	#q[1,1]
v25	#d[1]
o2	#*
o2	#*
v5	#q[2,1]
v5	#q[2,1]
v26	#d[2]
o2	#*
o2	#*
v10	#q[3,1]
v10	#q[3,1]
v27	#d[3]
o2	#*
o2	#*
v15	#q[4,1]
v15	#q[4,1]
v28	#d[4]
o2	#*
o2	#*
v20	#q[5,1]
v20	#q[5,1]
v29	#d[5]
n2
o5	#^
o0	# + 
n-1
o54	#sumlist
5
o2	#*
o2	#*
v0	#q[1,1]
v1	#q[1,2]
v25	#d[1]
o2	#*
o2	#*
v5	#q[2,1]
v6	#q[2,2]
v26	#d[2]
o2	#*
o2	#*
v10	#q[3,1]
v11	#q[3,2]
v27	#d[3]
o2	#*
o2	#*
v15	#q[4,1]
v16	#q[4,2]
v28	#d[4]
o2	#*
o2	#*
v20	#q[5,1]
v21	#q[5,2]
v29	#d[5]
n2
o5	#^
o0	# + 
n-1
o54	#sumlist
5
o2	#*
o2	#*
v1	#q[1,2]
v1	#q[1,2]
v25	#d[1]
o2	#*
o2	#*
v6	#q[2,2]
v6	#q[2,2]
v26	#d[2]
o2	#*
o2	#*
v11	#q[3,2]
v11	#q[3,2]
v27	#d[3]
o2	#*
o2	#*
v16	#q[4,2]
v16	#q[4,2]
v28	#d[4]
o2	#*
o2	#*
v21	#q[5,2]
v21	#q[5,2]
v29	#d[5]
n2
o5	#^
o54	#sumlist
5
o2	#*
o2	#*
v0	#q[1,1]
v2	#q[1,3]
v25	#d[1]
o2	#*
o2	#*
v5	#q[2,1]
v7	#q[2,3]
v26	#d[2]
o2	#*
o2	#*
v10	#q[3,1]
v12	#q[3,3]
v27	#d[3]
o2	#*
o2	#*
v15	#q[4,1]
v17	#q[4,3]
v28	#d[4]
o2	#*
o2	#*
v20	#q[5,1]
v22	#q[5,3]
v29	#d[5]
n2
o5	#^
o0	# + 
n-1
o54	#sumlist
5
o2	#*
o2	#*
v1	#q[1,2]
v2	#q[1,3]
v25	#d[1]
o2	#*
o2	#*
v6	#q[2,2]
v7	#q[2,3]
v26	#d[2]
o2	#*
o2	#*
v11	#q[3,2]
v12	#q[3,3]
v27	#d[3]
o2	#*
o2	#*
v16	#q[4,2]
v17	#q[4,3]
v28	#d[4]
o2	#*
o2	#*
v21	#q[5,2]
v22	#q[5,3]
v29	#d[5]
n2
o5	#^
o54	#sumlist
5
o2	#*
o2	#*
v2	#q[1,3]
v2	#q[1,3]
v25	#d[1]
o2	#*
o2	#*
v7	#q[2,3]
v7	#q[2,3]
v26	#d[2]
o2	#*
o2	#*
v12	#q[3,3]
v12	#q[3,3]
v27	#d[3]
o2	#*
o2	#*
v17	#q[4,3]
v17	#q[4,3]
v28	#d[4]
o2	#*
o2	#*
v22	#q[5,3]
v22	#q[5,3]
v29	#d[5]
n2
o5	#^
o54	#sumlist
5
o2	#*
o2	#*
v0	#q[1,1]
v3	#q[1,4]
v25	#d[1]
o2	#*
o2	#*
v5	#q[2,1]
v8	#q[2,4]
v26	#d[2]
o2	#*
o2	#*
v10	#q[3,1]
v13	#q[3,4]
v27	#d[3]
o2	#*
o2	#*
v15	#q[4,1]
v18	#q[4,4]
v28	#d[4]
o2	#*
o2	#*
v20	#q[5,1]
v23	#q[5,4]
v29	#d[5]
n2
o5	#^
o54	#sumlist
5
o2	#*
o2	#*
v1	#q[1,2]
v3	#q[1,4]
v25	#d[1]
o2	#*
o2	#*
v6	#q[2,2]
v8	#q[2,4]
v26	#d[2]
o2	#*
o2	#*
v11	#q[3,2]
v13	#q[3,4]
v27	#d[3]
o2	#*
o2	#*
v16	#q[4,2]
v18	#q[4,4]
v28	#d[4]
o2	#*
o2	#*
v21	#q[5,2]
v23	#q[5,4]
v29	#d[5]
n2
o5	#^
o0	# + 
n-1
o54	#sumlist
5
o2	#*
o2	#*
v2	#q[1,3]
v3	#q[1,4]
v25	#d[1]
o2	#*
o2	#*
v7	#q[2,3]
v8	#q[2,4]
v26	#d[2]
o2	#*
o2	#*
v12	#q[3,3]
v13	#q[3,4]
v27	#d[3]
o2	#*
o2	#*
v17	#q[4,3]
v18	#q[4,4]
v28	#d[4]
o2	#*
o2	#*
v22	#q[5,3]
v23	#q[5,4]
v29	#d[5]
n2
o5	#^
o0	# + 
n1
o54	#sumlist
5
o2	#*
o2	#*
v3	#q[1,4]
v3	#q[1,4]
v25	#d[1]
o2	#*
o2	#*
v8	#q[2,4]
v8	#q[2,4]
v26	#d[2]
o2	#*
o2	#*
v13	#q[3,4]
v13	#q[3,4]
v27	#d[3]
o2	#*
o2	#*
v18	#q[4,4]
v18	#q[4,4]
v28	#d[4]
o2	#*
o2	#*
v23	#q[5,4]
v23	#q[5,4]
v29	#d[5]
n2
o5	#^
o54	#sumlist
5
o2	#*
o2	#*
v0	#q[1,1]
v4	#q[1,5]
v25	#d[1]
o2	#*
o2	#*
v5	#q[2,1]
v9	#q[2,5]
v26	#d[2]
o2	#*
o2	#*
v10	#q[3,1]
v14	#q[3,5]
v27	#d[3]
o2	#*
o2	#*
v15	#q[4,1]
v19	#q[4,5]
v28	#d[4]
o2	#*
o2	#*
v20	#q[5,1]
v24	#q[5,5]
v29	#d[5]
n2
o5	#^
o54	#sumlist
5
o2	#*
o2	#*
v1	#q[1,2]
v4	#q[1,5]
v25	#d[1]
o2	#*
o2	#*
v6	#q[2,2]
v9	#q[2,5]
v26	#d[2]
o2	#*
o2	#*
v11	#q[3,2]
v14	#q[3,5]
v27	#d[3]
o2	#*
o2	#*
v16	#q[4,2]
v19	#q[4,5]
v28	#d[4]
o2	#*
o2	#*
v21	#q[5,2]
v24	#q[5,5]
v29	#d[5]
n2
o5	#^
o54	#sumlist
5
o2	#*
o2	#*
v2	#q[1,3]
v4	#q[1,5]
v25	#d[1]
o2	#*
o2	#*
v7	#q[2,3]
v9	#q[2,5]
v26	#d[2]
o2	#*
o2	#*
v12	#q[3,3]
v14	#q[3,5]
v27	#d[3]
o2	#*
o2	#*
v17	#q[4,3]
v19	#q[4,5]
v28	#d[4]
o2	#*
o2	#*
v22	#q[5,3]
v24	#q[5,5]
v29	#d[5]
n2
o5	#^
o0	# + 
n-1
o54	#sumlist
5
o2	#*
o2	#*
v3	#q[1,4]
v4	#q[1,5]
v25	#d[1]
o2	#*
o2	#*
v8	#q[2,4]
v9	#q[2,5]
v26	#d[2]
o2	#*
o2	#*
v13	#q[3,4]
v14	#q[3,5]
v27	#d[3]
o2	#*
o2	#*
v18	#q[4,4]
v19	#q[4,5]
v28	#d[4]
o2	#*
o2	#*
v23	#q[5,4]
v24	#q[5,5]
v29	#d[5]
n2
o5	#^
o0	# + 
n2
o54	#sumlist
5
o2	#*
o2	#*
v4	#q[1,5]
v4	#q[1,5]
v25	#d[1]
o2	#*
o2	#*
v9	#q[2,5]
v9	#q[2,5]
v26	#d[2]
o2	#*
o2	#*
v14	#q[3,5]
v14	#q[3,5]
v27	#d[3]
o2	#*
o2	#*
v19	#q[4,5]
v19	#q[4,5]
v28	#d[4]
o2	#*
o2	#*
v24	#q[5,5]
v24	#q[5,5]
v29	#d[5]
n2
x30	# initial guess
0 1
1 0
2 0
3 0
4 0
5 0
6 1
7 0
8 0
9 0
10 0
11 0
12 1
13 0
14 0
15 0
16 0
17 0
18 1
19 0
20 0
21 0
22 0
23 0
24 1
25 1
26 1
27 1
28 1
29 1
r	#15 ranges (rhs's)
4 0
4 0
4 0
4 0
4 0
4 0
4 0
4 0
4 0
4 0
4 1
4 1
4 1
4 1
4 1
b	#30 bounds (on variables)
0 -1.e8 1.e8
0 -1.e8 1.e8
0 -1.e8 1.e8
0 -1.e8 1.e8
0 -1.e8 1.e8
0 -1.e8 1.e8
0 -1.e8 1.e8
0 -1.e8 1.e8
0 -1.e8 1.e8
0 -1.e8 1.e8
0 -1.e8 1.e8
0 -1.e8 1.e8
0 -1.e8 1.e8
0 -1.e8 1.e8
0 -1.e8 1.e8
0 -1.e8 1.e8
0 -1.e8 1.e8
0 -1.e8 1.e8
0 -1.e8 1.e8
0 -1.e8 1.e8
0 -1.e8 1.e8
0 -1.e8 1.e8
0 -1.e8 1.e8
0 -1.e8 1.e8
0 -1.e8 1.e8
0 -1.e8 1.e8
0 -1.e8 1.e8
0 -1.e8 1.e8
0 -1.e8 1.e8
0 -1.e8 1.e8
k29	#intermediate Jacobian column lengths
5
10
15
20
25
30
35
40
45
50
55
60
65
70
75
80
85
90
95
100
105
110
115
120
125
125
125
125
125
J0 10
0 0
1 0
5 0
6 0
10 0
11 0
15 0
16 0
20 0
21 0
J1 10
0 0
2 0
5 0
7 0
10 0
12 0
15 0
17 0
20 0
22 0
J2 10
1 0
2 0
6 0
7 0
11 0
12 0
16 0
17 0
21 0
22 0
J3 10
0 0
3 0
5 0
8 0
10 0
13 0
15 0
18 0
20 0
23 0
J4 10
1 0
3 0
6 0
8 0
11 0
13 0
16 0
18 0
21 0
23 0
J5 10
2 0
3 0
7 0
8 0
12 0
13 0
17 0
18 0
22 0
23 0
J6 10
0 0
4 0
5 0
9 0
10 0
14 0
15 0
19 0
20 0
24 0
J7 10
1 0
4 0
6 0
9 0
11 0
14 0
16 0
19 0
21 0
24 0
J8 10
2 0
4 0
7 0
9 0
12 0
14 0
17 0
19 0
22 0
24 0
J9 10
3 0
4 0
8 0
9 0
13 0
14 0
18 0
19 0
23 0
24 0
J10 5
0 0
5 0
10 0
15 0
20 0
J11 5
1 0
6 0
11 0
16 0
21 0
J12 5
2 0
7 0
12 0
17 0
22 0
J13 5
3 0
8 0
13 0
18 0
23 0
J14 5
4 0
9 0
14 0
19 0
24 0
G0 30
0 0
1 0
2 0
3 0
4 0
5 0
6 0
7 0
8 0
9 0
10 0
11 0
12 0
13 0
14 0
15 0
16 0
17 0
18 0
19 0
20 0
21 0
22 0
23 0
24 0
25 0
26 0
27 0
28 0
29 0
